\ Model p-center
\ LP format - for model browsing. Use MPS format to capture full model detail.
Minimize
  L
Subject To
 epigraph[0]: 6269 x[0,1] + 2229 x[0,2] + 2629 x[0,3] + 8911 x[0,4]
   + 132 x[0,5] + 9437 x[0,6] + 8594 x[0,7] + 6799 x[0,8] + 1597 x[0,9] - L
   <= 0
 epigraph[1]: 3110 x[1,0] + 7112 x[1,2] + 3982 x[1,3] + 6338 x[1,4]
   + 7178 x[1,5] + 9639 x[1,6] + 8374 x[1,7] + 5346 x[1,8] + 7637 x[1,9]
   - L <= 0
 epigraph[2]: 2946 x[2,0] + 9756 x[2,1] + 1799 x[2,3] + 7403 x[2,4]
   + 9306 x[2,5] + 8545 x[2,6] + 4113 x[2,7] + 3085 x[2,8] + 7359 x[2,9]
   - L <= 0
 epigraph[3]: 7523 x[3,0] + 3040 x[3,1] + 4965 x[3,2] + 930 x[3,4]
   + 2534 x[3,5] + 496 x[3,6] + 571 x[3,7] + 3935 x[3,8] + 121 x[3,9] - L
   <= 0
 epigraph[4]: 6221 x[4,0] + 5913 x[4,1] + 8437 x[4,2] + 7752 x[4,3]
   + 2123 x[4,5] + 4164 x[4,6] + 1215 x[4,7] + 3418 x[4,8] + 3322 x[4,9]
   - L <= 0
 epigraph[5]: 979 x[5,0] + 3991 x[5,1] + 7996 x[5,2] + 1900 x[5,3]
   + 8013 x[5,4] + 3743 x[5,6] + 933 x[5,7] + 2732 x[5,8] + 2615 x[5,9] - L
   <= 0
 epigraph[6]: 3784 x[6,0] + 7691 x[6,1] + 395 x[6,2] + 4818 x[6,3]
   + 534 x[6,4] + 5422 x[6,5] + 2815 x[6,7] + 4241 x[6,8] + 1150 x[6,9] - L
   <= 0
 epigraph[7]: 5025 x[7,0] + 4727 x[7,1] + 6118 x[7,2] + 2408 x[7,3]
   + 7258 x[7,4] + 2229 x[7,5] + 1647 x[7,6] + 4729 x[7,8] + 8098 x[7,9]
   - L <= 0
 epigraph[8]: 3602 x[8,0] + 6126 x[8,1] + 4230 x[8,2] + 9038 x[8,3]
   + 8993 x[8,4] + 6613 x[8,5] + 9583 x[8,6] + 4532 x[8,7] + 5745 x[8,9]
   - L <= 0
 epigraph[9]: 6046 x[9,0] + 6943 x[9,1] + 9476 x[9,2] + 2150 x[9,3]
   + 4788 x[9,4] + 4905 x[9,5] + 7162 x[9,6] + 9995 x[9,7] + 488 x[9,8] - L
   <= 0
 p: y[0] + y[1] + y[2] + y[3] + y[4] + y[5] + y[6] + y[7] + y[8] + y[9]
   = 3
 x<y[0,0]: x[0,0] - y[0] <= 0
 x<y[0,1]: x[0,1] - y[1] <= 0
 x<y[0,2]: x[0,2] - y[2] <= 0
 x<y[0,3]: x[0,3] - y[3] <= 0
 x<y[0,4]: x[0,4] - y[4] <= 0
 x<y[0,5]: x[0,5] - y[5] <= 0
 x<y[0,6]: x[0,6] - y[6] <= 0
 x<y[0,7]: x[0,7] - y[7] <= 0
 x<y[0,8]: x[0,8] - y[8] <= 0
 x<y[0,9]: x[0,9] - y[9] <= 0
 x<y[1,0]: x[1,0] - y[0] <= 0
 x<y[1,1]: x[1,1] - y[1] <= 0
 x<y[1,2]: x[1,2] - y[2] <= 0
 x<y[1,3]: x[1,3] - y[3] <= 0
 x<y[1,4]: x[1,4] - y[4] <= 0
 x<y[1,5]: x[1,5] - y[5] <= 0
 x<y[1,6]: x[1,6] - y[6] <= 0
 x<y[1,7]: x[1,7] - y[7] <= 0
 x<y[1,8]: x[1,8] - y[8] <= 0
 x<y[1,9]: x[1,9] - y[9] <= 0
 x<y[2,0]: x[2,0] - y[0] <= 0
 x<y[2,1]: x[2,1] - y[1] <= 0
 x<y[2,2]: x[2,2] - y[2] <= 0
 x<y[2,3]: x[2,3] - y[3] <= 0
 x<y[2,4]: x[2,4] - y[4] <= 0
 x<y[2,5]: x[2,5] - y[5] <= 0
 x<y[2,6]: x[2,6] - y[6] <= 0
 x<y[2,7]: x[2,7] - y[7] <= 0
 x<y[2,8]: x[2,8] - y[8] <= 0
 x<y[2,9]: x[2,9] - y[9] <= 0
 x<y[3,0]: x[3,0] - y[0] <= 0
 x<y[3,1]: x[3,1] - y[1] <= 0
 x<y[3,2]: x[3,2] - y[2] <= 0
 x<y[3,3]: x[3,3] - y[3] <= 0
 x<y[3,4]: x[3,4] - y[4] <= 0
 x<y[3,5]: x[3,5] - y[5] <= 0
 x<y[3,6]: x[3,6] - y[6] <= 0
 x<y[3,7]: x[3,7] - y[7] <= 0
 x<y[3,8]: x[3,8] - y[8] <= 0
 x<y[3,9]: x[3,9] - y[9] <= 0
 x<y[4,0]: x[4,0] - y[0] <= 0
 x<y[4,1]: x[4,1] - y[1] <= 0
 x<y[4,2]: x[4,2] - y[2] <= 0
 x<y[4,3]: x[4,3] - y[3] <= 0
 x<y[4,4]: x[4,4] - y[4] <= 0
 x<y[4,5]: x[4,5] - y[5] <= 0
 x<y[4,6]: x[4,6] - y[6] <= 0
 x<y[4,7]: x[4,7] - y[7] <= 0
 x<y[4,8]: x[4,8] - y[8] <= 0
 x<y[4,9]: x[4,9] - y[9] <= 0
 x<y[5,0]: x[5,0] - y[0] <= 0
 x<y[5,1]: x[5,1] - y[1] <= 0
 x<y[5,2]: x[5,2] - y[2] <= 0
 x<y[5,3]: x[5,3] - y[3] <= 0
 x<y[5,4]: x[5,4] - y[4] <= 0
 x<y[5,5]: x[5,5] - y[5] <= 0
 x<y[5,6]: x[5,6] - y[6] <= 0
 x<y[5,7]: x[5,7] - y[7] <= 0
 x<y[5,8]: x[5,8] - y[8] <= 0
 x<y[5,9]: x[5,9] - y[9] <= 0
 x<y[6,0]: x[6,0] - y[0] <= 0
 x<y[6,1]: x[6,1] - y[1] <= 0
 x<y[6,2]: x[6,2] - y[2] <= 0
 x<y[6,3]: x[6,3] - y[3] <= 0
 x<y[6,4]: x[6,4] - y[4] <= 0
 x<y[6,5]: x[6,5] - y[5] <= 0
 x<y[6,6]: x[6,6] - y[6] <= 0
 x<y[6,7]: x[6,7] - y[7] <= 0
 x<y[6,8]: x[6,8] - y[8] <= 0
 x<y[6,9]: x[6,9] - y[9] <= 0
 x<y[7,0]: x[7,0] - y[0] <= 0
 x<y[7,1]: x[7,1] - y[1] <= 0
 x<y[7,2]: x[7,2] - y[2] <= 0
 x<y[7,3]: x[7,3] - y[3] <= 0
 x<y[7,4]: x[7,4] - y[4] <= 0
 x<y[7,5]: x[7,5] - y[5] <= 0
 x<y[7,6]: x[7,6] - y[6] <= 0
 x<y[7,7]: x[7,7] - y[7] <= 0
 x<y[7,8]: x[7,8] - y[8] <= 0
 x<y[7,9]: x[7,9] - y[9] <= 0
 x<y[8,0]: x[8,0] - y[0] <= 0
 x<y[8,1]: x[8,1] - y[1] <= 0
 x<y[8,2]: x[8,2] - y[2] <= 0
 x<y[8,3]: x[8,3] - y[3] <= 0
 x<y[8,4]: x[8,4] - y[4] <= 0
 x<y[8,5]: x[8,5] - y[5] <= 0
 x<y[8,6]: x[8,6] - y[6] <= 0
 x<y[8,7]: x[8,7] - y[7] <= 0
 x<y[8,8]: x[8,8] - y[8] <= 0
 x<y[8,9]: x[8,9] - y[9] <= 0
 x<y[9,0]: x[9,0] - y[0] <= 0
 x<y[9,1]: x[9,1] - y[1] <= 0
 x<y[9,2]: x[9,2] - y[2] <= 0
 x<y[9,3]: x[9,3] - y[3] <= 0
 x<y[9,4]: x[9,4] - y[4] <= 0
 x<y[9,5]: x[9,5] - y[5] <= 0
 x<y[9,6]: x[9,6] - y[6] <= 0
 x<y[9,7]: x[9,7] - y[7] <= 0
 x<y[9,8]: x[9,8] - y[8] <= 0
 x<y[9,9]: x[9,9] - y[9] <= 0
 sumx[0]: x[0,0] + x[0,1] + x[0,2] + x[0,3] + x[0,4] + x[0,5] + x[0,6]
   + x[0,7] + x[0,8] + x[0,9] = 1
 sumx[1]: x[1,0] + x[1,1] + x[1,2] + x[1,3] + x[1,4] + x[1,5] + x[1,6]
   + x[1,7] + x[1,8] + x[1,9] = 1
 sumx[2]: x[2,0] + x[2,1] + x[2,2] + x[2,3] + x[2,4] + x[2,5] + x[2,6]
   + x[2,7] + x[2,8] + x[2,9] = 1
 sumx[3]: x[3,0] + x[3,1] + x[3,2] + x[3,3] + x[3,4] + x[3,5] + x[3,6]
   + x[3,7] + x[3,8] + x[3,9] = 1
 sumx[4]: x[4,0] + x[4,1] + x[4,2] + x[4,3] + x[4,4] + x[4,5] + x[4,6]
   + x[4,7] + x[4,8] + x[4,9] = 1
 sumx[5]: x[5,0] + x[5,1] + x[5,2] + x[5,3] + x[5,4] + x[5,5] + x[5,6]
   + x[5,7] + x[5,8] + x[5,9] = 1
 sumx[6]: x[6,0] + x[6,1] + x[6,2] + x[6,3] + x[6,4] + x[6,5] + x[6,6]
   + x[6,7] + x[6,8] + x[6,9] = 1
 sumx[7]: x[7,0] + x[7,1] + x[7,2] + x[7,3] + x[7,4] + x[7,5] + x[7,6]
   + x[7,7] + x[7,8] + x[7,9] = 1
 sumx[8]: x[8,0] + x[8,1] + x[8,2] + x[8,3] + x[8,4] + x[8,5] + x[8,6]
   + x[8,7] + x[8,8] + x[8,9] = 1
 sumx[9]: x[9,0] + x[9,1] + x[9,2] + x[9,3] + x[9,4] + x[9,5] + x[9,6]
   + x[9,7] + x[9,8] + x[9,9] = 1
Bounds
Binaries
 y[0] y[1] y[2] y[3] y[4] y[5] y[6] y[7] y[8] y[9]
End
